p cnf 41 135
-4 2 0
-4 -3 0
-2 3 4 0
-6 -4 0
-6 5 0
4 -5 6 0
1 6 -7 0
-1 -6 -7 0
1 -6 7 0
-1 6 7 0
-8 9 0
8 9 0
-6 9 -10 0
6 -9 -10 0
-6 -9 10 0
6 9 10 0
11 6 0
11 10 0
-6 -10 -11 0
6 -9 -12 0
-6 9 -12 0
6 9 12 0
-6 -9 12 0
13 -12 0
13 -4 0
12 4 -13 0
-14 -11 0
-14 13 0
11 -13 14 0
-7 14 -15 0
7 -14 -15 0
-7 -14 15 0
7 14 15 0
17 -16 0
17 -12 0
16 12 -17 0
-19 18 0
-19 12 0
-18 -12 19 0
-18 19 -20 0
18 -19 -20 0
-18 -19 20 0
18 19 20 0
-21 17 0
-21 -20 0
-17 20 21 0
-22 -3 0
-22 10 0
3 -10 22 0
23 -21 0
23 -22 0
21 22 -23 0
15 23 -24 0
-15 -23 -24 0
15 -23 24 0
-15 23 24 0
3 -25 -26 0
-3 25 -26 0
3 25 26 0
-3 -25 26 0
-26 3 -27 0
26 -3 -27 0
-26 -3 27 0
26 3 27 0
28 -12 -29 0
-28 12 -29 0
28 12 29 0
-28 -12 29 0
18 29 -30 0
-18 -29 -30 0
18 -29 30 0
-18 29 30 0
-31 -27 0
-31 -30 0
27 30 31 0
32 -3 0
32 9 0
3 -9 -32 0
-34 33 0
-34 5 0
-33 -5 34 0
35 32 0
35 -34 0
-32 34 -35 0
36 1 0
36 12 0
-1 -12 -36 0
-37 35 0
-37 -36 0
-35 36 37 0
-38 -31 0
-38 -37 0
31 37 38 0
-9 28 -39 0
9 -28 -39 0
-9 -28 39 0
9 28 39 0
-40 -38 0
-40 -39 0
38 39 40 0
41 -24 0
41 -40 0
24 40 -41 0
-30 11 0
12 1 20 0
-32 1 -27 -37 -21 0
-15 -39 0
17 13 39 0
28 1 -24 -13 22 -41 0
-34 5 0
-31 -40 11 7 0
-21 1 19 26 -8 0
12 17 1 -41 0
34 26 0
33 4 -23 0
-2 -26 31 25 -3 -30 0
41 19 28 12 0
-7 -16 -12 18 -10 0
-4 -25 0
13 -40 -36 0
-34 -27 23 -17 21 0
38 8 0
27 0
-12 13 0
-6 36 22 11 34 -20 0
-17 -14 24 0
26 18 24 0
-10 15 0
20 -19 6 0
-9 14 -26 -11 -8 22 0
22 31 -1 9 -34 32 0
-36 28 40 -11 39 0
-9 -18 0
-28 -10 0
41 0
